% Auto-generated by scripts/generate_dzn.py
% problem_type   = regex
% instance       = regex_96
% source_json    = instances_json/1_medium_blowup/regex_96.json
% blowup         = 9.923076923076923
% representation = DFA

mode = 0;

var_count = 35;
Q = 129;
S = 3;
q0 = 1;
F = {89, 90, 91, 92, 93, 94, 95, 96, 97, 98, 99, 100, 101, 102, 103, 104, 105, 106, 107, 108, 109, 110, 111, 112, 113, 114, 115, 116, 117, 118, 119, 120, 121, 122, 123, 124, 125, 126, 127, 128, 129};
d_dfa = array2d(1..129, 1..3, [
  1, 1, 2,
  1, 1, 3,
  1, 4, 3,
  6, 6, 5,
  8, 8, 7,
  8, 8, 9,
  12, 11, 10,
  12, 12, 13,
  12, 12, 10,
  16, 15, 14,
  18, 18, 17,
  16, 16, 19,
  16, 16, 14,
  22, 21, 20,
  24, 24, 23,
  22, 22, 25,
  27, 27, 26,
  27, 27, 28,
  22, 22, 20,
  31, 30, 29,
  33, 33, 32,
  31, 31, 34,
  36, 36, 35,
  36, 36, 37,
  31, 31, 29,
  40, 39, 38,
  40, 40, 41,
  40, 40, 38,
  44, 43, 42,
  46, 46, 45,
  44, 44, 47,
  49, 49, 48,
  49, 49, 50,
  44, 44, 42,
  53, 52, 51,
  53, 53, 54,
  53, 53, 51,
  57, 56, 55,
  59, 59, 58,
  57, 57, 60,
  57, 57, 55,
  63, 62, 61,
  65, 65, 64,
  63, 63, 66,
  68, 68, 67,
  68, 68, 69,
  63, 63, 61,
  72, 71, 70,
  72, 72, 73,
  72, 72, 70,
  76, 75, 74,
  78, 78, 77,
  76, 76, 79,
  76, 76, 74,
  82, 81, 80,
  84, 84, 83,
  82, 82, 85,
  87, 87, 86,
  87, 87, 88,
  82, 82, 80,
  91, 90, 89,
  93, 93, 92,
  91, 91, 94,
  96, 96, 95,
  96, 96, 97,
  91, 91, 89,
  100, 99, 98,
  100, 100, 101,
  100, 100, 98,
  104, 103, 102,
  106, 106, 105,
  104, 104, 107,
  104, 104, 102,
  110, 109, 108,
  112, 112, 111,
  110, 110, 113,
  115, 115, 114,
  115, 115, 116,
  110, 110, 108,
  119, 118, 117,
  121, 121, 120,
  119, 119, 122,
  124, 124, 123,
  124, 124, 125,
  119, 119, 117,
  128, 127, 126,
  128, 128, 129,
  128, 128, 126,
  1, 4, 3,
  6, 6, 5,
  1, 1, 2,
  8, 8, 7,
  8, 8, 9,
  1, 1, 3,
  12, 11, 10,
  12, 12, 13,
  12, 12, 10,
  16, 15, 14,
  18, 18, 17,
  16, 16, 19,
  16, 16, 14,
  22, 21, 20,
  24, 24, 23,
  22, 22, 25,
  27, 27, 26,
  27, 27, 28,
  22, 22, 20,
  31, 30, 29,
  33, 33, 32,
  31, 31, 34,
  36, 36, 35,
  36, 36, 37,
  31, 31, 29,
  40, 39, 38,
  40, 40, 41,
  40, 40, 38,
  44, 43, 42,
  46, 46, 45,
  44, 44, 47,
  49, 49, 48,
  49, 49, 50,
  44, 44, 42,
  53, 52, 51,
  53, 53, 54,
  53, 53, 51,
  57, 56, 55,
  59, 59, 58,
  57, 57, 60,
  57, 57, 55
]);
d_nfa = array2d(1..129, 1..3, [
  {}, {}, {},
  {}, {}, {},
  {}, {}, {},
  {}, {}, {},
  {}, {}, {},
  {}, {}, {},
  {}, {}, {},
  {}, {}, {},
  {}, {}, {},
  {}, {}, {},
  {}, {}, {},
  {}, {}, {},
  {}, {}, {},
  {}, {}, {},
  {}, {}, {},
  {}, {}, {},
  {}, {}, {},
  {}, {}, {},
  {}, {}, {},
  {}, {}, {},
  {}, {}, {},
  {}, {}, {},
  {}, {}, {},
  {}, {}, {},
  {}, {}, {},
  {}, {}, {},
  {}, {}, {},
  {}, {}, {},
  {}, {}, {},
  {}, {}, {},
  {}, {}, {},
  {}, {}, {},
  {}, {}, {},
  {}, {}, {},
  {}, {}, {},
  {}, {}, {},
  {}, {}, {},
  {}, {}, {},
  {}, {}, {},
  {}, {}, {},
  {}, {}, {},
  {}, {}, {},
  {}, {}, {},
  {}, {}, {},
  {}, {}, {},
  {}, {}, {},
  {}, {}, {},
  {}, {}, {},
  {}, {}, {},
  {}, {}, {},
  {}, {}, {},
  {}, {}, {},
  {}, {}, {},
  {}, {}, {},
  {}, {}, {},
  {}, {}, {},
  {}, {}, {},
  {}, {}, {},
  {}, {}, {},
  {}, {}, {},
  {}, {}, {},
  {}, {}, {},
  {}, {}, {},
  {}, {}, {},
  {}, {}, {},
  {}, {}, {},
  {}, {}, {},
  {}, {}, {},
  {}, {}, {},
  {}, {}, {},
  {}, {}, {},
  {}, {}, {},
  {}, {}, {},
  {}, {}, {},
  {}, {}, {},
  {}, {}, {},
  {}, {}, {},
  {}, {}, {},
  {}, {}, {},
  {}, {}, {},
  {}, {}, {},
  {}, {}, {},
  {}, {}, {},
  {}, {}, {},
  {}, {}, {},
  {}, {}, {},
  {}, {}, {},
  {}, {}, {},
  {}, {}, {},
  {}, {}, {},
  {}, {}, {},
  {}, {}, {},
  {}, {}, {},
  {}, {}, {},
  {}, {}, {},
  {}, {}, {},
  {}, {}, {},
  {}, {}, {},
  {}, {}, {},
  {}, {}, {},
  {}, {}, {},
  {}, {}, {},
  {}, {}, {},
  {}, {}, {},
  {}, {}, {},
  {}, {}, {},
  {}, {}, {},
  {}, {}, {},
  {}, {}, {},
  {}, {}, {},
  {}, {}, {},
  {}, {}, {},
  {}, {}, {},
  {}, {}, {},
  {}, {}, {},
  {}, {}, {},
  {}, {}, {},
  {}, {}, {},
  {}, {}, {},
  {}, {}, {},
  {}, {}, {},
  {}, {}, {},
  {}, {}, {},
  {}, {}, {},
  {}, {}, {},
  {}, {}, {},
  {}, {}, {},
  {}, {}, {},
  {}, {}, {}
]);
